58
1 0 1
2 0 1
2 1 1
3 0 1
3 1 1
4 2 1
5 0 1
6 0 1
6 5 1
7 1 1
7 3 1
7 5 1
7 6 1
8 0 1
8 2 1
8 3 1
8 6 1
8 7 1
9 1 1
9 3 1
9 4 1
9 5 1
9 6 1
9 8 1
10 3 1
10 4 1
10 6 1
10 8 1
11 0 1
11 1 1
11 4 1
11 5 1
11 6 1
11 9 1
12 0 1
12 1 1
12 2 1
12 3 1
12 4 1
12 5 1
12 7 1
12 10 1
13 0 1
13 2 1
13 4 1
13 5 1
13 9 1
13 10 1
13 12 1
14 2 1
14 3 1
14 4 1
14 8 1
14 10 1
14 12 1
14 13 1
15 0 1
15 1 1
15 2 1
15 3 1
15 4 1
15 5 1
15 6 1
15 8 1
15 12 1
16 2 1
16 4 1
16 9 1
16 10 1
16 11 1
16 12 1
16 15 1
17 1 1
17 9 1
17 10 1
17 11 1
17 13 1
17 14 1
17 16 1
18 0 1
18 1 1
18 3 1
18 4 1
18 7 1
18 8 1
18 10 1
18 16 1
18 17 1
19 0 1
19 2 1
19 5 1
19 6 1
19 10 1
19 11 1
19 16 1
19 17 1
19 18 1
20 0 1
20 1 1
20 2 1
20 7 1
20 9 1
20 10 1
20 11 1
20 13 1
20 14 1
20 16 1
20 17 1
20 18 1
20 19 1
21 1 1
21 2 1
21 3 1
21 4 1
21 6 1
21 8 1
21 10 1
21 11 1
21 12 1
21 15 1
21 16 1
22 0 1
22 1 1
22 5 1
22 8 1
22 9 1
22 13 1
22 14 1
22 18 1
22 19 1
22 20 1
23 0 1
23 1 1
23 2 1
23 3 1
23 5 1
23 6 1
23 8 1
23 9 1
23 10 1
23 11 1
23 13 1
23 18 1
23 19 1
24 2 1
24 4 1
24 5 1
24 8 1
24 9 1
24 10 1
24 12 1
24 14 1
24 16 1
24 22 1
25 0 1
25 4 1
25 6 1
25 7 1
25 9 1
25 10 1
25 13 1
25 14 1
25 17 1
25 18 1
25 19 1
25 20 1
25 21 1
26 1 1
26 3 1
26 6 1
26 8 1
26 16 1
26 22 1
26 23 1
26 24 1
26 25 1
27 1 1
27 2 1
27 3 1
27 4 1
27 5 1
27 9 1
27 10 1
27 11 1
27 13 1
27 15 1
27 16 1
27 19 1
27 20 1
27 22 1
27 25 1
28 0 1
28 1 1
28 3 1
28 5 1
28 10 1
28 12 1
28 14 1
28 17 1
28 18 1
28 21 1
28 22 1
28 24 1
28 25 1
28 26 1
28 27 1
29 1 1
29 2 1
29 3 1
29 6 1
29 7 1
29 9 1
29 15 1
29 19 1
29 20 1
29 22 1
29 23 1
29 24 1
29 25 1
29 27 1
29 28 1
30 0 1
30 1 1
30 3 1
30 4 1
30 5 1
30 6 1
30 11 1
30 12 1
30 13 1
30 14 1
30 15 1
30 16 1
30 18 1
30 21 1
30 23 1
30 25 1
30 27 1
30 28 1
30 29 1
31 4 1
31 5 1
31 9 1
31 10 1
31 11 1
31 12 1
31 13 1
31 16 1
31 17 1
31 18 1
31 19 1
31 20 1
31 21 1
31 22 1
31 27 1
31 28 1
31 30 1
32 1 1
32 4 1
32 7 1
32 9 1
32 10 1
32 12 1
32 13 1
32 14 1
32 16 1
32 17 1
32 20 1
32 21 1
32 22 1
32 25 1
32 26 1
32 27 1
32 28 1
32 30 1
33 1 1
33 3 1
33 5 1
33 7 1
33 8 1
33 10 1
33 12 1
33 15 1
33 17 1
33 18 1
33 23 1
33 24 1
33 25 1
33 27 1
33 31 1
34 1 1
34 2 1
34 4 1
34 5 1
34 6 1
34 8 1
34 13 1
34 14 1
34 20 1
34 22 1
34 27 1
34 31 1
34 33 1
35 4 1
35 9 1
35 10 1
35 15 1
35 16 1
35 17 1
35 18 1
35 29 1
36 0 1
36 5 1
36 6 1
36 8 1
36 9 1
36 10 1
36 12 1
36 15 1
36 16 1
36 17 1
36 22 1
36 23 1
36 24 1
36 25 1
36 27 1
36 28 1
36 29 1
36 30 1
36 35 1
37 0 1
37 3 1
37 5 1
37 7 1
37 9 1
37 11 1
37 12 1
37 13 1
37 14 1
37 15 1
37 16 1
37 17 1
37 18 1
37 19 1
37 20 1
37 22 1
37 23 1
37 24 1
37 27 1
37 29 1
37 32 1
37 33 1
37 34 1
37 35 1
38 0 1
38 2 1
38 3 1
38 4 1
38 6 1
38 8 1
38 11 1
38 15 1
38 16 1
38 19 1
38 22 1
38 23 1
38 26 1
38 27 1
38 29 1
38 31 1
38 32 1
38 33 1
38 36 1
39 0 1
39 4 1
39 8 1
39 9 1
39 11 1
39 12 1
39 16 1
39 17 1
39 18 1
39 22 1
39 24 1
39 25 1
39 26 1
39 27 1
39 28 1
39 29 1
39 38 1
40 3 1
40 6 1
40 9 1
40 10 1
40 12 1
40 13 1
40 14 1
40 15 1
40 19 1
40 20 1
40 28 1
40 29 1
40 30 1
40 31 1
40 34 1
40 36 1
40 37 1
40 38 1
41 2 1
41 5 1
41 6 1
41 10 1
41 19 1
41 21 1
41 23 1
41 27 1
41 29 1
41 30 1
41 33 1
41 34 1
41 35 1
41 37 1
41 38 1
41 39 1
41 40 1
42 0 1
42 4 1
42 5 1
42 9 1
42 11 1
42 12 1
42 13 1
42 15 1
42 19 1
42 20 1
42 23 1
42 27 1
42 29 1
42 30 1
42 33 1
42 35 1
42 36 1
42 39 1
42 40 1
43 5 1
43 7 1
43 8 1
43 9 1
43 11 1
43 12 1
43 14 1
43 16 1
43 18 1
43 19 1
43 21 1
43 23 1
43 25 1
43 26 1
43 27 1
43 28 1
43 30 1
43 32 1
43 33 1
43 34 1
43 38 1
43 39 1
43 41 1
44 2 1
44 3 1
44 4 1
44 7 1
44 9 1
44 13 1
44 18 1
44 19 1
44 24 1
44 25 1
44 26 1
44 27 1
44 28 1
44 29 1
44 34 1
44 37 1
44 41 1
45 0 1
45 1 1
45 5 1
45 6 1
45 7 1
45 12 1
45 16 1
45 17 1
45 20 1
45 21 1
45 22 1
45 24 1
45 25 1
45 28 1
45 30 1
45 31 1
45 32 1
45 34 1
45 36 1
45 38 1
45 42 1
46 6 1
46 10 1
46 12 1
46 13 1
46 16 1
46 17 1
46 18 1
46 20 1
46 21 1
46 25 1
46 26 1
46 28 1
46 30 1
46 31 1
46 35 1
46 39 1
46 40 1
46 42 1
46 43 1
46 44 1
46 45 1
47 0 1
47 2 1
47 6 1
47 7 1
47 11 1
47 13 1
47 15 1
47 16 1
47 17 1
47 20 1
47 24 1
47 25 1
47 28 1
47 32 1
47 33 1
47 36 1
47 37 1
47 39 1
47 40 1
47 41 1
47 44 1
47 45 1
48 2 1
48 4 1
48 6 1
48 9 1
48 10 1
48 11 1
48 12 1
48 13 1
48 15 1
48 16 1
48 17 1
48 18 1
48 23 1
48 25 1
48 26 1
48 28 1
48 31 1
48 33 1
48 35 1
48 36 1
48 37 1
48 38 1
48 43 1
49 1 1
49 2 1
49 3 1
49 6 1
49 7 1
49 8 1
49 9 1
49 11 1
49 12 1
49 13 1
49 16 1
49 17 1
49 20 1
49 21 1
49 27 1
49 28 1
49 29 1
49 32 1
49 34 1
49 35 1
49 39 1
49 40 1
49 41 1
49 43 1
49 44 1
49 45 1
49 46 1
49 47 1
50 0 1
50 2 1
50 4 1
50 5 1
50 6 1
50 8 1
50 13 1
50 14 1
50 15 1
50 17 1
50 19 1
50 22 1
50 23 1
50 24 1
50 25 1
50 26 1
50 27 1
50 34 1
50 38 1
50 40 1
50 42 1
50 45 1
50 47 1
50 48 1
51 0 1
51 2 1
51 5 1
51 9 1
51 12 1
51 14 1
51 18 1
51 19 1
51 21 1
51 22 1
51 23 1
51 24 1
51 25 1
51 28 1
51 31 1
51 33 1
51 35 1
51 37 1
51 38 1
51 39 1
51 43 1
51 47 1
51 48 1
52 0 1
52 3 1
52 4 1
52 5 1
52 10 1
52 11 1
52 12 1
52 13 1
52 16 1
52 21 1
52 22 1
52 26 1
52 27 1
52 29 1
52 31 1
52 33 1
52 34 1
52 35 1
52 38 1
52 39 1
52 41 1
52 44 1
52 48 1
52 50 1
52 51 1
53 0 1
53 1 1
53 3 1
53 6 1
53 9 1
53 10 1
53 20 1
53 23 1
53 24 1
53 25 1
53 27 1
53 28 1
53 31 1
53 35 1
53 37 1
53 38 1
53 39 1
53 40 1
53 41 1
53 43 1
53 45 1
53 46 1
53 47 1
53 48 1
53 49 1
53 50 1
54 0 1
54 3 1
54 4 1
54 5 1
54 6 1
54 7 1
54 11 1
54 12 1
54 16 1
54 19 1
54 20 1
54 23 1
54 24 1
54 26 1
54 27 1
54 28 1
54 29 1
54 31 1
54 34 1
54 36 1
54 37 1
54 38 1
54 41 1
54 42 1
54 45 1
54 47 1
54 49 1
54 50 1
54 53 1
55 0 1
55 1 1
55 3 1
55 4 1
55 6 1
55 7 1
55 8 1
55 12 1
55 13 1
55 14 1
55 15 1
55 17 1
55 18 1
55 19 1
55 20 1
55 21 1
55 22 1
55 26 1
55 28 1
55 30 1
55 31 1
55 32 1
55 33 1
55 36 1
55 40 1
55 41 1
55 43 1
55 44 1
55 47 1
55 50 1
55 51 1
55 53 1
55 54 1
56 0 1
56 2 1
56 3 1
56 4 1
56 5 1
56 6 1
56 10 1
56 12 1
56 21 1
56 24 1
56 26 1
56 27 1
56 29 1
56 30 1
56 31 1
56 34 1
56 35 1
56 36 1
56 37 1
56 38 1
56 39 1
56 41 1
56 42 1
56 47 1
56 49 1
56 51 1
56 52 1
56 54 1
56 55 1
57 1 1
57 2 1
57 3 1
57 9 1
57 12 1
57 14 1
57 15 1
57 16 1
57 17 1
57 18 1
57 22 1
57 23 1
57 27 1
57 30 1
57 32 1
57 33 1
57 34 1
57 36 1
57 42 1
57 45 1
57 46 1
57 47 1
57 48 1
57 51 1
57 53 1
57 55 1
57 56 1
